N = 50;
MinK = 6;
Capacity = 200;

Scale = 10;
DistanceRoundingMode = Floor;
X = array1d(0..N, [40, 25, 22, 22, 20, 20, 18, 15, 15, 10, 10, 8, 8, 5, 5, 2, 0, 0, 44, 42, 42, 40, 40, 38, 38, 35, 95, 95, 92, 90, 88, 88, 87, 85, 85, 67, 65, 65, 62, 60, 60, 58, 55, 55, 55, 20, 18, 2, 42, 42, 72]);
Y = array1d(0..N, [50, 85, 75, 85, 80, 85, 75, 75, 80, 35, 40, 40, 45, 35, 45, 40, 40, 45, 5, 10, 15, 5, 15, 5, 15, 5, 30, 35, 30, 35, 30, 35, 30, 25, 35, 85, 85, 82, 80, 80, 85, 75, 80, 85, 82, 82, 80, 45, 5, 12, 35]);

Demands = array1d(1..N, [20, 30, 10, 40, 20, 20, 20, 10, 20, 30, 40, 20, 10, 10, 20, 20, 20, 20, 40, 10, 10, 40, 30, 10, 20, 30, 20, 10, 10, 10, 20, 10, 10, 30, 20, 40, 10, 30, 10, 30, 20, 10, 20, 10, 10, 10, 10, 10, 10, 30]);

ServiceTimes = array1d(1..N, [10, 10, 10, 10, 10, 10, 10, 10, 10, 10, 10, 10, 10, 10, 10, 10, 10, 10, 10, 10, 10, 10, 10, 10, 10, 10, 10, 10, 10, 10, 10, 10, 10, 10, 10, 10, 10, 10, 10, 10, 10, 10, 10, 10, 10, 10, 10, 10, 10, 10]);

TimeWindows = array2d(1..2, 0..N, [|
    0, 125, 32, 101,  71,  40,  55,  69,  56,  51,  90,  33,  49,  62,  35,  39,  59,  60,  79,  58, 111,  52,  55,  45, 128,  54, 105,  57,  55,  52,  52,  50, 116,  51, 100,  61,  43, 113,  37,  36,  50,  48,  33, 117,  35,  37,  98,  38, 120,  79, 104 |
  240, 191, 97, 146, 193, 113, 164, 118, 155, 160, 177, 152, 108, 191, 117, 161, 114, 189, 124, 115, 162, 111, 158, 164, 194, 184, 154, 172, 120, 112, 159, 110, 175, 178, 151, 185, 186, 164, 148, 191, 149, 165, 166, 168, 148, 177, 157, 109, 184, 158, 157
|]);
